% File represents an instance of a Composite Structure problem to be solved by a CP framework
% Created on 2025-03-26 10:42:14.635
T = 50;
n = 36;
m = 60;
edges = [(1, 2),
(7, 8),
(13, 14),
(19, 20),
(25, 26),
(31, 32),
(3, 2),
(9, 8),
(14, 15),
(20, 21),
(26, 27),
(32, 33),
(3, 4),
(9, 10),
(15, 16),
(21, 22),
(27, 28),
(33, 34),
(5, 4),
(11, 10),
(17, 16),
(23, 22),
(28, 29),
(34, 35),
(5, 6),
(11, 12),
(18, 17),
(24, 23),
(30, 29),
(36, 35),
(7, 1),
(13, 7),
(19, 13),
(25, 19),
(31, 25),
(8, 2),
(14, 8),
(20, 14),
(26, 20),
(32, 26),
(9, 3),
(9, 15),
(21, 15),
(27, 21),
(33, 27),
(10, 4),
(10, 16),
(22, 16),
(28, 22),
(34, 28),
(11, 5),
(11, 17),
(23, 17),
(23, 29),
(35, 29),
(12, 6),
(18, 12),
(24, 18),
(24, 30),
(36, 30)];
counts = [|6, 10, 6, 4,
|6, 8, 6, 4,
|6, 8, 6, 6,
|6, 6, 6, 4,
|6, 8, 6, 8,
|6, 4, 6, 8,
|6, 14, 6, 6,
|6, 12, 6, 4,
|6, 12, 6, 8,
|6, 8, 6, 6,
|6, 8, 6, 10,
|6, 6, 6, 8,
|8, 16, 8, 6,
|6, 16, 6, 4,
|6, 12, 6, 4,
|6, 6, 6, 4,
|6, 8, 6, 4,
|6, 8, 6, 8,
|8, 16, 8, 8,
|8, 16, 8, 4,
|6, 14, 6, 4,
|6, 10, 6, 4,
|6, 10, 6, 8,
|6, 14, 6, 8,
|10, 16, 10, 8,
|8, 16, 8, 8,
|8, 14, 8, 6,
|6, 14, 6, 6,
|6, 10, 6, 6,
|6, 12, 6, 6,
|12, 16, 12, 10,
|10, 16, 10, 8,
|8, 16, 8, 6,
|6, 16, 6, 6,
|6, 12, 6, 6,
|8, 12, 8, 6|];
